letting presetvals be [
    [-1,-1,-1,-2,-1, 2,-1],
    [ 7,-2,-1, 6,-1,-2, 5],
    [-1,-2, 3,-2,-1,-2,-1],
    [-1,-1,-1,-2,-1,-1,-1],
    [-2, 2,-2,-2,-2, 2,-2],
    [-1,-1,-1,-2,-1,-1,-1],
    [-1,-2,-1, 0,-1,-2, 5],
    [-1,-2, 2,-2,-1,-2,-1],
    [-1, 6,-1,-2,-1,-1,-1]
]
letting op be [2,3,1,3,3,1,2,2,1,1,1,3,3,3,3,3,1,2,2,2]
